p cnf 10 28
3 6 10 -9 -7 -5 -4 -2 0
3 4 5 6 8 10 -7 -1 0
1 2 5 7 8 10 -9 -3 0
4 5 8 -10 -9 -6 -3 -1 0
7 8 9 10 -6 -5 -4 -3 0
2 4 7 10 -9 -8 -6 -3 0
1 3 5 0
9 2 5 0
-8 2 -4 0
2 6 -9 0
-4 -10 6 0
-7 2 4 0
-8 9 -7 0
1 -6 -4 0
-7 10 1 0
-7 5 9 0
3 5 7 -8 -6 0
9 5 1 0
-8 -7 -10 0
-7 3 1 0
7 -4 5 -9 0
4 8 9 -10 -5 -1 0
6 10 -8 -3 -1 0
-7 -4 -2 9 0
1 4 -10 -9 -6 -5 0
8 3 -4 7 0
9 3 -10 0
4 -2 -9 8 -6 -5 -1 0
